10	5
0	2	2	1
1	1	5
2	2	10	6
3	2	10	7
4	1	3
5	1	6
6	3	9	8	7
7	1	11
8	1	11
9	1	11
10	1	11
11	0
0	0	0	0	0	0	0
1	6	1	0	3	2	5
2	9	0	0	0	0	4
3	8	0	0	3	0	5
4	2	0	0	1	2	0
5	8	1	0	0	0	5
6	9	0	0	4	4	0
7	9	3	0	2	0	0
8	5	4	2	2	3	4
9	8	0	0	3	0	3
10	7	0	0	4	5	4
11	0	0	0	0	0	0
3	3	4	5	7
